(declare-const a Real)
(declare-const b Real)
(declare-const c Real)
(assert (= (* a b c) 1))
(assert (> a 0))
(assert (> b 0))
(assert (> c 0))
(assert (not (<= (+ (* -185360 (pow a 4)) (* 11562 (pow (+ a b) 4)) (* -900368 (pow a (/ 55296 56273)) (pow b (/ 169796 56273))) (* 177728 b (pow a 3)) (* 723008 a (pow b 3))) 0)))
(check-sat)
(get-model)
(exit)